1000 9959
7166 2251
2944 6096
6570 4041
8367 9571
3224 5189
3514 4073
8852 2711
8309 7500
5678 8627
2176 9955
5538 1313
6525 4527
1946 5801
4309 838
9979 9697
4757 4485
243 1019
6062 3887
3506 5093
2128 6144
3394 6609
6900 7884
8694 4391
1669 1440
3501 1167
7565 3530
466 6088
2569 5650
8702 1136
1457 1477
7730 3341
2139 5077
1730 4576
4081 7367
9452 4828
5973 3814
2299 2793
5243 451
1525 3829
2608 2950
6766 4005
2109 9487
1898 8739
1924 9664
5850 1635
3660 1113
3483 248
3660 6031
6352 3938
